(set-logic QF_S)
(declare-fun var0 () String)
(declare-fun var1 () String)
(declare-fun var2 () String)
(assert (= var0 (Concat "j>lt/" (Concat var1 ""))))
(assert (= var0 (Concat ",Us!D" (Concat var2 ""))))
(check-sat)